5 5
4 52 3 98 0 94 1 36 2 35
2 66 0 50 4 3 1 76 3 4
4 55 1 52 0 59 3 71 2 20
2 19 3 8 0 67 4 27 1 79
1 8 0 18 3 29 2 46 4 36
-1
0 2 3 4 5
0 1 2 3 5
0 2 3 4 5
0 2 3 4 5
0 2 4 5
-2
188 302 288 484
67 161 186 291
158 183 315 379
38 128 189 227
29 113 198

370 6
21 17 6 12 2
20 11 19 8 3
15 5 23 14 4
16 22 1 13 9
10 0 18 7 24
